
Welcome to IBM(R) ILOG(R) CPLEX(R) Interactive Optimizer 22.1.1.0
  with Simplex, Mixed Integer & Barrier Optimizers
5725-A06 5725-A29 5724-Y48 5724-Y49 5724-Y54 5724-Y55 5655-Y21
Copyright IBM Corp. 1988, 2022.  All Rights Reserved.

Type 'help' for a list of available commands.
Type 'help' followed by a command name for more
information on commands.

CPLEX> Selected objective sense:  MINIMIZE
Selected objective  name:  00000000
Selected RHS        name:  RHS1
Selected bound      name:  BOUND
Problem 'ee.mps' read.
Read time = 0.03 sec. (3.14 ticks)
CPLEX> New value for time limit in seconds: 7200
CPLEX> New value for parallel optimization mode: -1
CPLEX> New value for default parallel thread count: 40
CPLEX> New value for mixed integer optimality gap tolerance: 1e-13
CPLEX> Version identifier: 22.1.1.0 | 2022-11-28 | 9160aff4d
CPXPARAM_Threads                                 40
CPXPARAM_Parallel                                -1
CPXPARAM_TimeLimit                               7200
CPXPARAM_MIP_Tolerances_MIPGap                   1e-13
Found incumbent of value 0.000000 after 0.00 sec. (0.31 ticks)
Tried aggregator 2 times.
MIP Presolve eliminated 181 rows and 2745 columns.
MIP Presolve modified 5862 coefficients.
Aggregator did 713 substitutions.
Reduced MIP has 3623 rows, 7739 columns, and 28643 nonzeros.
Reduced MIP has 7739 binaries, 0 generals, 0 SOSs, and 0 indicators.
Presolve time = 0.08 sec. (68.54 ticks)
Probing time = 0.03 sec. (5.29 ticks)
Tried aggregator 1 time.
Detecting symmetries...
Reduced MIP has 3623 rows, 7739 columns, and 28643 nonzeros.
Reduced MIP has 7739 binaries, 0 generals, 0 SOSs, and 0 indicators.
Presolve time = 0.02 sec. (21.85 ticks)
Probing time = 0.02 sec. (5.10 ticks)
Clique table members: 18551.
MIP emphasis: balance optimality and feasibility.
MIP search method: dynamic search.
Parallel mode: opportunistic, using up to 40 threads.
Root relaxation solution time = 0.09 sec. (66.82 ticks)

        Nodes                                         Cuts/
   Node  Left     Objective  IInf  Best Integer    Best Bound    ItCnt     Gap

*     0+    0                            0.0000  -1.31000e+13              --- 
*     0+    0                      -5.49000e+12  -1.31000e+13           138.62%
      0     0  -1.30900e+13    43  -5.49000e+12  -1.30900e+13     1925  138.43%
*     0+    0                      -1.30900e+13  -1.30900e+13             0.00%
      0     0  -1.30900e+13   127  -1.30900e+13      Cuts: 56     2609    0.00%
      0     0  -1.30900e+13   160  -1.30900e+13      Cuts: 57     2752    0.00%
*     0+    0                      -1.30900e+13  -1.30900e+13             0.00%
*     0+    0                      -1.30900e+13  -1.30900e+13             0.00%
*     0+    0                      -1.30900e+13  -1.30900e+13             0.00%
      0     0  -1.00000e+75     0  -1.30900e+13  -1.30900e+13     2752    0.00%
*     0+    0                      -1.30900e+13  -1.30900e+13             0.00%

Repeating presolve.
Tried aggregator 3 times.
MIP Presolve eliminated 2021 rows and 4421 columns.
MIP Presolve modified 35 coefficients.
Aggregator did 302 substitutions.
Reduced MIP has 1300 rows, 2994 columns, and 10500 nonzeros.
Reduced MIP has 2994 binaries, 0 generals, 0 SOSs, and 0 indicators.
Presolve time = 0.04 sec. (44.66 ticks)
Probing time = 0.02 sec. (3.60 ticks)
Tried aggregator 1 time.
Detecting symmetries...
Reduced MIP has 1300 rows, 2994 columns, and 10500 nonzeros.
Reduced MIP has 2994 binaries, 0 generals, 0 SOSs, and 0 indicators.
Presolve time = 0.01 sec. (7.99 ticks)
Represolve time = 0.08 sec. (69.24 ticks)
Probing time = 0.01 sec. (3.54 ticks)
Clique table members: 7118.
MIP emphasis: balance optimality and feasibility.
MIP search method: dynamic search.
Parallel mode: opportunistic, using up to 40 threads.
Root relaxation solution time = 0.05 sec. (24.17 ticks)

        Nodes                                         Cuts/
   Node  Left     Objective  IInf  Best Integer    Best Bound    ItCnt     Gap

*     0+    0                      -1.30900e+13  -1.30900e+13             0.00%
      0     0  -1.30900e+13    88  -1.30900e+13  -1.30900e+13     3591    0.00%
      0     0  -1.30900e+13   120  -1.30900e+13      Cuts: 76     3746    0.00%
      0     0  -1.30900e+13   129  -1.30900e+13      Cuts: 47     4006    0.00%
*     0+    0                      -1.30900e+13  -1.30900e+13             0.00%
      0     2  -1.30900e+13   115  -1.30900e+13  -1.30900e+13     4006    0.00%
Elapsed time = 1.64 sec. (847.71 ticks, tree = 0.02 MB, solutions = 9)
   1461    26  -1.30900e+13   156  -1.30900e+13  -1.30900e+13   104700    0.00%
   3312    63  -1.30900e+13    48  -1.30900e+13  -1.30900e+13   192803    0.00%

Clique cuts applied:  19
Cover cuts applied:  453
Flow cuts applied:  3
Mixed integer rounding cuts applied:  3
Zero-half cuts applied:  13
Lift and project cuts applied:  7
Gomory fractional cuts applied:  14

Root node processing (before b&c):
  Real time             =    1.21 sec. (847.35 ticks)
Parallel b&c, 40 threads:
  Real time             =    1.61 sec. (602.19 ticks)
  Sync time (average)   =    0.67 sec.
  Wait time (average)   =    0.00 sec.
                          ------------
Total (root+branch&cut) =    2.81 sec. (1449.54 ticks)

Solution pool: 9 solutions saved.

MIP - Integer optimal solution:  Objective = -1.3089999990e+13
Solution time =    2.87 sec.  Iterations = 232001  Nodes = 3496
Deterministic time = 1449.58 ticks  (505.05 ticks/sec)

CPLEX> Solution 'p10' written to file 'ee.sol'.
CPLEX> 